100	5
25	1000
10
7
13
19
26
3
5
9
16
16
12
19
23
20
8
19
2
12
17
9
11
18
29
3
6
17
16
16
9
21
27
23
11
14
8
5
8
16
31
9
5
5
7
18
16
1
27
36
30
13
10
9
14
18
2
6
7
18
28
3
13
19
10
9
20
25
25
36
6
5
15
25
9
8
18
13
14
3
23
6
26
16
11
7
41
35
26
9
15
3
1
2
22
27
20
11
12
10
9
17
35	35	0	1000	0	0
41	49	190	974	10	2
35	17	18	792	10	3
55	45	289	822	10	3
55	20	679	800	10	2
15	30	20	906	10	1
25	30	355	574	10	1
20	50	72	669	10	3
10	43	393	492	10	2
55	60	394	503	10	1
30	60	517	692	10	3
20	65	206	325	10	3
50	35	15	725	10	3
30	25	694	823	10	1
15	10	32	694	10	1
30	5	176	299	10	1
10	20	102	543	10	1
5	30	673	930	10	2
20	40	229	582	10	3
15	60	95	552	10	3
45	65	418	829	10	3
45	20	18	727	10	1
45	10	349	554	10	1
55	5	206	325	10	2
65	35	435	960	10	3
65	20	826	956	10	2
45	30	328	927	10	2
35	40	44	315	10	1
41	37	6	526	10	3
64	42	29	513	10	1
40	60	199	414	10	3
31	52	17	744	10	3
35	69	482	955	10	3
53	52	24	299	10	3
65	55	265	878	10	2
63	65	626	873	10	1
2	60	41	328	10	2
20	20	339	960	10	3
5	5	298	409	10	3
60	12	33	344	10	1
40	25	300	497	10	2
42	7	336	571	10	2
24	12	25	292	10	1
23	3	458	867	10	3
11	14	230	343	10	2
6	38	29	309	10	1
2	48	338	805	10	3
8	56	34	602	10	3
13	52	200	962	10	2
6	68	441	600	10	1
47	47	272	917	10	3
49	58	176	625	10	1
27	43	11	748	10	1
37	31	403	500	10	1
57	29	475	900	10	3
63	23	620	739	10	1
53	12	525	752	10	3
32	12	246	705	10	1
36	26	854	980	10	3
21	24	17	972	10	3
17	34	449	971	10	2
12	24	126	541	10	2
24	58	168	297	10	3
27	69	34	588	10	3
15	77	154	393	10	3
62	77	49	308	10	1
49	73	532	753	10	2
67	5	291	404	10	2
56	39	577	812	10	2
37	47	165	290	10	3
37	56	668	968	10	1
57	68	98	537	10	3
47	16	22	915	10	1
44	17	143	564	10	2
46	13	681	802	10	3
49	11	27	711	10	3
49	42	281	382	10	1
53	43	821	948	10	1
61	52	324	559	10	2
57	48	377	476	10	2
56	37	719	968	10	3
55	54	268	599	10	1
15	47	23	761	10	2
14	37	21	842	10	2
11	31	425	522	10	1
16	22	110	727	10	2
4	18	230	623	10	3
28	18	397	470	10	1
26	52	219	448	10	1
26	35	409	981	10	3
31	67	225	654	10	2
15	19	222	964	10	2
22	22	18	159	10	2
18	24	691	969	10	2
26	27	190	749	10	1
25	24	14	793	10	1
22	27	344	953	10	2
25	21	462	823	10	1
19	21	21	748	10	3
20	26	328	437	10	2
18	18	821	965	10	1
46	63	0	1000	5	4
61	39	0	1000	5	4
35	13	0	1000	5	4
7	30	0	1000	5	4
15	46	0	1000	5	4
1	0	0	0	0	
0	0	1	0	0	
0	1	0	0	0	
0	1	0	0	0	
0	0	0	0	0	
0	0	0	0	0	
0	0	0	0	1	
0	0	0	0	1	
0	0	0	0	0	
1	0	0	0	0	
0	0	0	0	1	
0	1	0	0	0	
0	0	0	0	0	
0	0	0	0	0	
0	0	0	0	0	
0	0	0	0	0	
0	0	0	1	0	
0	0	0	0	1	
0	0	0	0	1	
1	0	0	0	0	
0	0	0	0	0	
0	0	0	0	0	
0	0	1	0	0	
0	1	0	0	0	
0	1	0	0	0	
0	1	0	0	0	
0	0	0	0	0	
0	1	0	0	0	
0	0	0	0	0	
1	0	0	0	0	
0	0	0	0	1	
1	0	0	0	0	
1	0	0	0	0	
0	1	0	0	0	
0	0	0	0	0	
0	0	0	0	1	
0	0	0	1	0	
0	0	0	1	0	
0	0	0	0	0	
0	0	1	0	0	
0	0	1	0	0	
0	0	0	0	0	
0	0	1	0	0	
0	0	0	1	0	
0	0	0	0	0	
0	0	0	0	1	
0	0	0	0	1	
0	0	0	0	1	
0	0	0	0	0	
1	0	0	0	0	
0	0	0	0	0	
0	0	0	0	0	
0	0	0	0	0	
0	1	0	0	0	
0	0	0	0	0	
0	0	1	0	0	
0	0	0	0	0	
0	0	1	0	0	
0	0	0	1	0	
0	0	0	1	0	
0	0	0	1	0	
0	0	0	0	1	
1	0	0	0	0	
0	0	0	0	1	
0	0	0	0	0	
1	0	0	0	0	
0	0	1	0	0	
0	1	0	0	0	
1	0	0	0	0	
0	0	0	0	0	
1	0	0	0	0	
0	0	0	0	0	
0	0	1	0	0	
0	0	1	0	0	
0	0	1	0	0	
0	0	0	0	0	
0	0	0	0	0	
0	1	0	0	0	
0	1	0	0	0	
0	1	0	0	0	
0	0	0	0	0	
0	0	0	0	1	
0	0	0	0	1	
0	0	0	0	0	
0	0	0	1	0	
0	0	0	1	0	
0	0	0	0	0	
0	0	0	0	0	
0	0	0	0	1	
1	0	0	0	0	
0	0	0	1	0	
0	0	1	0	0	
0	0	0	1	0	
0	0	0	0	0	
0	0	0	0	0	
0	0	0	1	0	
0	0	0	0	0	
0	0	0	1	0	
0	0	0	1	0	
0	0	0	0	0	
